data/benchmarks/bayes/75-12-5-q.cnf
p cnf 672 691
c weights 0.123941 0.876059 1 1 1 1 1 1 1 1 1 1 1 1 1 1 1 1 1 1 1 1 1 1 1 1 1 1 1 1 1 1 1 1 1 1 1 1 1 1 1 1 1 1 1 1 1 1 1 1 1 1 1 1 1 1 1 1 1 1 1 1 1 1 1 1 1 1 1 1 1 1 1 1 1 1 1 1 1 1 1 1 1 1 1 1 1 1 1 1 1 1 1 1 1 1 1 1 1 1 1 1 1 1 1 1 1 1 1 1 1 1 1 1 1 1 1 1 1 1 1 1 1 1 1 1 1 1 1 1 1 1 1 1 1 1 1 1 1 1 1 1 1 1 1 1 1 1 1 1 1 1 1 1 1 1 1 1 1 1 1 1 1 1 1 1 1 1 1 1 1 1 1 1 1 1 1 1 1 1 1 1 1 1 1 1 1 1 1 1 1 1 1 1 1 1 1 1 1 1 1 1 1 1 1 1 1 1 1 1 1 1 1 1 1 1 1 1 1 1 1 1 1 1 1 1 1 1 1 1 1 1 1 1 1 1 1 1 1 1 1 1 1 1 1 1 1 1 1 1 1 1 1 1 1 1 1 1 1 1 1 1 1 1 1 1 1 1 1 1 1 1 1 1 1 1 1 1 1 1 1 1 1 1 1 1 1 1 0.5 0.5 0.5 0.5 0.5 0.5 0.5 0.5 0.584714 0.41528600000000004 0.756833 0.24316700000000002 0.5 0.5 0.5 0.5 0.161891 0.838109 0.428153 0.571847 0.498716 0.5012840000000001 0.831623 0.168377 0.5 0.5 0.5 0.5 0.270747 0.7292529999999999 0.099399 0.900601 0.5 0.5 0.5 0.5 0.5 0.5 0.5 0.5 0.35649 0.64351 0.320079 0.679921 0.5 0.5 0.5 0.5 0.465285 0.534715 0.792687 0.20731299999999997 0.0413996 0.9586004 0.996343 0.0036570000000000213 0.5 0.5 0.5 0.5 0.5 0.5 0.5 0.5 0.5 0.5 0.5 0.5 0.5 0.5 0.5 0.5 0.5 0.5 0.5 0.5 0.5 0.5 0.5 0.5 0.5 0.5 0.5 0.5 0.5 0.5 0.5 0.5 0.5 0.5 0.5 0.5 0.5 0.5 0.5 0.5 0.713421 0.28657900000000003 0.401552 0.598448 0.704134 0.29586599999999996 0.75482 0.24517999999999995 0.5 0.5 0.5 0.5 0.5 0.5 0.5 0.5 0.5 0.5 0.5 0.5 0.5 0.5 0.5 0.5 0.5 0.5 0.5 0.5 0.5 0.5 0.5 0.5 0.5 0.5 0.5 0.5 0.5 0.5 0.5 0.5 0.219003 0.7809969999999999 0.230993 0.769007 0.5 0.5 0.5 0.5 0.5 0.5 0.5 0.5 0.479607 0.520393 0.966709 0.03329099999999996 0.937254 0.06274599999999997 0.182165 0.817835 0.0281163 0.9718837 0.8909 0.10909999999999997 0.57349 0.42650999999999994 0.965144 0.034856 0.278347 0.721653 0.594222 0.40577799999999997 0.311291 0.688709 0.891855 0.10814500000000005 0.5 0.5 0.5 0.5 0.5 0.5 0.5 0.5 0.5 0.5 0.5 0.5 0.5 0.5 0.5 0.5 0.5 0.5 0.5 0.5 0.5 0.5 0.5 0.5 0.5 0.5 0.5 0.5 0.5 0.5 0.5 0.5 0.5 0.5 0.5 0.5 0.5 0.5 0.5 0.5 0.5 0.5 0.5 0.5 0.5 0.5 0.5 0.5 0.5 0.5 0.5 0.5 0.5 0.5 0.5 0.5 0.622116 0.377884 0.0567466 0.9432534 0.5 0.5 0.5 0.5 0.5 0.5 0.5 0.5 0.698495 0.301505 0.200521 0.799479 0.542422 0.45757800000000004 0.426835 0.5731649999999999 0.5 0.5 0.5 0.5 0.5 0.5 0.5 0.5 0.697926 0.30207399999999995 0.444993 0.555007 0.267405 0.732595 0.0589887 0.9410113 0.5 0.5 0.5 0.5 0.5 0.5 0.5 0.5 0.55827 0.44172999999999996 0.410788 0.5892120000000001 0.498178 0.501822 0.615017 0.38498299999999996 0.5 0.5 0.5 0.5 0.5 0.5 0.5 0.5 0.5 0.5 0.5 0.5 0.5 0.5 0.5 0.5 0.5 0.5 0.5 0.5 0.5 0.5 0.5 0.5 0.439657 0.560343 0.0402029 0.9597971 0.0478743 0.9521257 0.498645 0.501355 0.5 0.5 0.5 0.5 0.5 0.5 0.5 0.5 0.5 0.5 0.5 0.5 0.184791 0.815209 0.0428708 0.9571292 0.485965 0.514035 0.582047 0.417953 0.5 0.5 0.5 0.5 0.5 0.5 0.5 0.5 0.0740613 0.9259387 0.0837275 0.9162725 0.430318 0.569682 0.200581 0.799419 0.276872 0.723128 0.942311 0.05768899999999999 0.488008 0.511992 0.0573412 0.9426588 0.5 0.5 0.5 0.5 0.5 0.5 0.5 0.5 0.5 0.5 0.5 0.5 0.5 0.5 0.5 0.5 0.5 0.5 0.5 0.5 0.5 0.5 0.5 0.5 0.5 0.5 0.5 0.5 0.5 0.5 0.5 0.5 0.5 0.5 0.5 0.5 0.5 0.5 0.5 0.5 0.5 0.5 0.5 0.5 0.5 0.5 0.5 0.5 0.5 0.5 0.5 0.5 0.5 0.5 0.5 0.5 0.5 0.5 0.5 0.5 0.5 0.5 0.5 0.5 0.5 0.5 0.5 0.5 0.34678 0.65322 0.716785 0.283215 0.562568 0.43743200000000004 0.491396 0.5086040000000001 0.346258 0.653742 0.802721 0.19727899999999998 0.134726 0.865274 0.497032 0.5029680000000001 0.5 0.5 0.5 0.5 0.5 0.5 0.5 0.5 0.72988 0.27012 0.407585 0.592415 0.474144 0.525856 0.757629 0.242371 0.5 0.5 0.5 0.5 0.5 0.5 0.5 0.5 0.5 0.5 0.5 0.5 0.5 0.5 0.5 0.5 0.5 0.5 0.5 0.5 0.5 0.5 0.5 0.5 0.5 0.5 0.5 0.5 0.5 0.5 0.5 0.5 0.878757 0.12124299999999999 0.718092 0.28190800000000005 0.614462 0.38553800000000005 0.833655 0.16634499999999997 0.5 0.5 0.5 0.5 0.5 0.5 0.5 0.5 0.5 0.5 0.5 0.5 0.440991 0.559009 0.696403 0.303597 0.0813977 0.9186023 0.804935 0.19506500000000004 0.5 0.5 0.5 0.5 0.5 0.5 0.5 0.5 0.5 0.5 0.5 0.5 0.5 0.5 0.5 0.5 0.5 0.5 0.5 0.5 0.5 0.5 0.5 0.5 0.724078 0.275922 0.692857 0.30714300000000005 0.800552 0.19944799999999996 0.301005 0.698995 0.5 0.5 0.5 0.5 0.5 0.5 0.5 0.5 0.5 0.5 0.5 0.5 0.5 0.5 0.5 0.5 0.987357 0.01264299999999996 0.0190727 0.9809273 0.724289 0.27571100000000004 0.941233 0.058767000000000014 0.5 0.5 0.5 0.5 0.5 0.5 0.5 0.5 0.955046 0.04495400000000005 0.830075 0.169925 0.0376711 0.9623289 0.961033 0.038966999999999974 0.00456843 0.99543157 0.685112 0.31488799999999995 0.601327 0.39867300000000006 0.80512 0.19488000000000005 0.638527 0.36147300000000004 0.846912 0.153088 0.5 0.5 0.5 0.5 0.5 0.5 0.5 0.5 0.5 0.5 0.5 0.5 0.5 0.5 0.5 0.5 0.00480633 0.99519367 0.547349 0.452651 0.00625137 0.99374863 0.300433 0.699567 0.5 0.5 0.5 0.5 0.5 0.5 0.5 0.5 0.5 0.5 0.5 0.5 0.5 0.5 0.5 0.5 0.5 0.5 0.5 0.5 0.5 0.5 0.5 0.5 0.5 0.5 0.5 0.5 0.5 0.5 0.5 0.5 0.401016 0.598984 0.764519 0.23548100000000005 0.907258 0.09274199999999999 0.542655 0.457345 0.5 0.5 0.5 0.5 0.5 0.5 0.5 0.5 0.5 0.5 0.5 0.5 0.5 0.5 0.5 0.5 0.5 0.5 0.5 0.5 0.5 0.5 0.5 0.5 0.5 0.5 0.5 0.5 0.5 0.5 0.5 0.5 0.5 0.5 0.5 0.5 0.5 0.5 0.5 0.5 0.5 0.5 0.5 0.5 0.491334 0.5086660000000001 0.147346 0.852654 0.41813 0.58187 0.403399 0.5966009999999999 0.5 0.5 0.5 0.5 0.5 0.5 0.5 0.5 0.5 0.5 0.5 0.5 0.5 0.5 0.5 0.5 0.870758 0.12924199999999997 0.72551 0.27449 0.878066 0.12193399999999999 0.0103838 0.9896162 0.5 0.5 0.5 0.5 0.5 0.5 0.5 0.5 0.5 0.5 0.5 0.5 0.5 0.5 0.5 0.5 0.5 0.5 0.5 0.5 0.5 0.5 0.5 0.5 0.5 0.5 0.5 0.5 0.5 0.5 0.5 0.5 0.5 0.5 0.5 0.5 0.5 0.5 0.5 0.5 0.875559 0.12444100000000002 0.141015 0.858985 0.5 0.5 0.5 0.5 0.5 0.5 0.5 0.5 0.5 0.5 0.5 0.5 0.5 0.5 0.5 0.5 0.5 0.5 0.5 0.5 0.5 0.5 0.5 0.5 0.5 0.5 0.5 0.5 0.5 0.5 0.5 0.5 0.498579 0.501421 0.0423635 0.9576365 0.119606 0.880394 0.682757 0.31724300000000005 0.124406 0.875594 0.0982627 0.9017373 0.859308 0.14069200000000004 0.999965 3.500000000000725e-05 0.5 0.5 0.5 0.5 0.5 0.5 0.5 0.5 0.364128 0.635872 0.316737 0.683263 0.340814 0.659186 0.0612754 0.9387246 0.5 0.5 0.5 0.5 0.5 0.5 0.5 0.5 0.5 0.5 0.5 0.5 0.5 0.5 0.5 0.5 0.497508 0.5024919999999999 0.90216 0.09784000000000004 0.974159 0.025841000000000003 0.617113 0.382887 0.5 0.5 0.5 0.5 0.5 0.5 0.5 0.5 0.5 0.5 0.5 0.5 0.5 0.5 0.5 0.5 0.5 0.5 0.5 0.5 0.526725 0.473275 0.8343 0.16569999999999996 0.0181193 0.9818807 0.943532 0.05646799999999996 0.5 0.5 0.5 0.5 0.5 0.5 0.5 0.5 0.898715 0.10128499999999996 0.62711 0.37289000000000005 0.299732 0.700268 0.830511 0.169489 0.5 0.5 0.5 0.5 0.5 0.5 0.5 0.5 0.483251 0.516749 0.46999 0.53001 0.600787 0.39921300000000004 0.224735 0.775265 0.5 0.5 0.5 0.5 0.5 0.5 0.5 0.5 0.5 0.5 0.5 0.5 0.5 0.5 0.5 0.5 0.5 0.5 0.5 0.5 0.5 0.5 0.5 0.5 0.5 0.5 0.5 0.5 0.5 0.5 0.5 0.5 0.5 0.5 0.5 0.5 0.890348 0.10965199999999997 0.524038 0.475962 0.644892 0.355108 0.373598 0.626402 0.245679 0.754321 0.598333 0.401667 0.386476 0.613524 0.276615 0.723385 0.5 0.5 0.5 0.5 0.5 0.5 0.5 0.5 0.5 0.5 0.5 0.5 0.5 0.5 0.5 0.5 0.5 0.5 0.5 0.5 0.5 0.5 0.5 0.5 0.0186859 0.9813141 0.106761 0.893239 0.997117 0.002882999999999969 0.167303 0.832697 0.868934 0.13106600000000002 0.0576504 0.9423496 0.368028 0.631972 0.513826 0.486174 0.5 0.5 0.5 0.5 0.5 0.5 0.5 0.5 0.5 0.5 0.5 0.5 0.5 0.5 0.5 0.5 0.5 0.5 0.5 0.5 0.5 0.5 0.5 0.5 0.5 0.5 0.5 0.5 0.5 0.5 0.5 0.5
-1 2 0
1 -2 0
-2 -3 0
2 3 0
-3 -149 4 0
-3 149 -4 0
3 -150 4 0
3 150 -4 0
-4 -5 0
4 5 0
-5 -153 6 0
-5 153 -6 0
5 -154 6 0
5 154 -6 0
-6 -155 7 0
-6 155 -7 0
6 -156 7 0
6 156 -7 0
-7 8 0
7 -8 0
-8 -159 9 0
-8 159 -9 0
8 -160 9 0
8 160 -9 0
-9 10 0
9 -10 0
-10 -11 0
10 11 0
-11 -165 12 0
-11 165 -12 0
11 -166 12 0
11 166 -12 0
-1 -13 0
1 13 0
-13 -2 -169 14 0
-13 -2 169 -14 0
-13 2 -170 14 0
-13 2 170 -14 0
13 -2 -171 14 0
13 -2 171 -14 0
13 2 -172 14 0
13 2 172 -14 0
-14 -3 15 0
-14 3 -15 0
14 -3 15 0
14 3 -15 0
-15 -4 16 0
-15 4 16 0
15 -4 16 0
15 4 -16 0
-16 -5 17 0
-16 5 17 0
16 -5 17 0
16 5 -17 0
-17 -6 18 0
-17 6 -18 0
17 -6 -18 0
17 6 -18 0
-18 -7 -19 0
-18 7 -19 0
18 -7 -19 0
18 7 19 0
-19 -8 -193 20 0
-19 -8 193 -20 0
-19 8 -194 20 0
-19 8 194 -20 0
19 -8 -195 20 0
19 -8 195 -20 0
19 8 -196 20 0
19 8 196 -20 0
-20 -9 -21 0
-20 9 21 0
20 -9 -21 0
20 9 21 0
-21 -10 -22 0
-21 10 -22 0
21 -10 22 0
21 10 22 0
-22 -11 -23 0
-22 11 -23 0
22 -11 -23 0
22 11 23 0
-23 -12 -24 0
-23 12 24 0
23 -12 -24 0
23 12 -24 0
-13 -213 25 0
-13 213 -25 0
13 -214 25 0
13 214 -25 0
-25 -14 -26 0
-25 14 26 0
25 -14 26 0
25 14 26 0
-26 -15 -219 27 0
-26 -15 219 -27 0
-26 15 -220 27 0
-26 15 220 -27 0
26 -15 -221 27 0
26 -15 221 -27 0
26 15 -222 27 0
26 15 222 -27 0
-27 -16 -223 28 0
-27 -16 223 -28 0
-27 16 -224 28 0
-27 16 224 -28 0
27 -16 -225 28 0
27 -16 225 -28 0
27 16 -226 28 0
27 16 226 -28 0
-28 -17 -227 29 0
-28 -17 227 -29 0
-28 17 -228 29 0
-28 17 228 -29 0
28 -17 -229 29 0
28 -17 229 -29 0
28 17 -230 29 0
28 17 230 -29 0
-29 -18 -30 0
-29 18 30 0
29 -18 30 0
29 18 30 0
-30 -19 31 0
-30 19 -31 0
30 -19 -31 0
30 19 -31 0
-31 -20 32 0
-31 20 32 0
31 -20 -32 0
31 20 -32 0
-32 -21 33 0
-32 21 -33 0
32 -21 -33 0
32 21 33 0
-33 -22 -34 0
-33 22 34 0
33 -22 -34 0
33 22 -34 0
-34 -23 -35 0
-34 23 -35 0
34 -23 35 0
34 23 35 0
-35 -24 -36 0
-35 24 36 0
35 -24 -36 0
35 24 36 0
-25 -259 37 0
-25 259 -37 0
25 -260 37 0
25 260 -37 0
-37 -26 38 0
-37 26 -38 0
37 -26 38 0
37 26 -38 0
-38 -27 -265 39 0
-38 -27 265 -39 0
-38 27 -266 39 0
-38 27 266 -39 0
38 -27 -267 39 0
38 -27 267 -39 0
38 27 -268 39 0
38 27 268 -39 0
-39 -28 -40 0
-39 28 40 0
39 -28 -40 0
39 28 -40 0
-40 -29 -273 41 0
-40 -29 273 -41 0
-40 29 -274 41 0
-40 29 274 -41 0
40 -29 -275 41 0
40 -29 275 -41 0
40 29 -276 41 0
40 29 276 -41 0
-41 -30 42 0
-41 30 -42 0
41 -30 42 0
41 30 -42 0
-42 -31 -281 43 0
-42 -31 281 -43 0
-42 31 -282 43 0
-42 31 282 -43 0
42 -31 -283 43 0
42 -31 283 -43 0
42 31 -284 43 0
42 31 284 -43 0
-43 -32 44 0
-43 32 -44 0
43 -32 44 0
43 32 44 0
-44 -33 -45 0
-44 33 45 0
44 -33 45 0
44 33 45 0
-45 -34 46 0
-45 34 46 0
45 -34 46 0
45 34 -46 0
-46 -35 -297 47 0
-46 -35 297 -47 0
-46 35 -298 47 0
-46 35 298 -47 0
46 -35 -299 47 0
46 -35 299 -47 0
46 35 -300 47 0
46 35 300 -47 0
-47 -36 48 0
-47 36 48 0
47 -36 48 0
47 36 -48 0
-37 -49 0
37 49 0
-49 -38 -307 50 0
-49 -38 307 -50 0
-49 38 -308 50 0
-49 38 308 -50 0
49 -38 -309 50 0
49 -38 309 -50 0
49 38 -310 50 0
49 38 310 -50 0
-50 -39 -51 0
-50 39 51 0
50 -39 -51 0
50 39 51 0
-51 -40 -315 52 0
-51 -40 315 -52 0
-51 40 -316 52 0
-51 40 316 -52 0
51 -40 -317 52 0
51 -40 317 -52 0
51 40 -318 52 0
51 40 318 -52 0
-52 -41 -319 53 0
-52 -41 319 -53 0
-52 41 -320 53 0
-52 41 320 -53 0
52 -41 -321 53 0
52 -41 321 -53 0
52 41 -322 53 0
52 41 322 -53 0
-53 -42 54 0
-53 42 -54 0
53 -42 54 0
53 42 54 0
-54 -43 -55 0
-54 43 55 0
54 -43 55 0
54 43 55 0
-55 -44 -56 0
-55 44 -56 0
55 -44 -56 0
55 44 56 0
-56 -45 -57 0
-56 45 57 0
56 -45 -57 0
56 45 -57 0
-57 -46 -58 0
-57 46 -58 0
57 -46 -58 0
57 46 58 0
-58 -47 -59 0
-58 47 59 0
58 -47 59 0
58 47 59 0
-59 -48 -60 0
-59 48 60 0
59 -48 60 0
59 48 60 0
-49 61 0
49 -61 0
-61 -50 62 0
-61 50 -62 0
61 -50 62 0
61 50 -62 0
-62 -51 -357 63 0
-62 -51 357 -63 0
-62 51 -358 63 0
-62 51 358 -63 0
62 -51 -359 63 0
62 -51 359 -63 0
62 51 -360 63 0
62 51 360 -63 0
-63 -52 -361 64 0
-63 -52 361 -64 0
-63 52 -362 64 0
-63 52 362 -64 0
63 -52 -363 64 0
63 -52 363 -64 0
63 52 -364 64 0
63 52 364 -64 0
-64 -53 65 0
-64 53 -65 0
64 -53 -65 0
64 53 -65 0
-65 -54 -369 66 0
-65 -54 369 -66 0
-65 54 -370 66 0
-65 54 370 -66 0
65 -54 -371 66 0
65 -54 371 -66 0
65 54 -372 66 0
65 54 372 -66 0
-66 -55 -67 0
-66 55 67 0
66 -55 67 0
66 55 67 0
-67 -56 68 0
-67 56 -68 0
67 -56 68 0
67 56 68 0
-68 -57 -69 0
-68 57 -69 0
68 -57 -69 0
68 57 69 0
-69 -58 70 0
-69 58 70 0
69 -58 -70 0
69 58 70 0
-70 -59 -389 71 0
-70 -59 389 -71 0
-70 59 -390 71 0
-70 59 390 -71 0
70 -59 -391 71 0
70 -59 391 -71 0
70 59 -392 71 0
70 59 392 -71 0
-71 -60 72 0
-71 60 -72 0
71 -60 -72 0
71 60 -72 0
-61 73 0
61 -73 0
-73 -62 -399 74 0
-73 -62 399 -74 0
-73 62 -400 74 0
-73 62 400 -74 0
73 -62 -401 74 0
73 -62 401 -74 0
73 62 -402 74 0
73 62 402 -74 0
-74 -63 -75 0
-74 63 -75 0
74 -63 75 0
74 63 75 0
-75 -64 76 0
-75 64 76 0
75 -64 -76 0
75 64 -76 0
-76 -65 77 0
-76 65 -77 0
76 -65 -77 0
76 65 -77 0
-77 -66 -415 78 0
-77 -66 415 -78 0
-77 66 -416 78 0
-77 66 416 -78 0
77 -66 -417 78 0
77 -66 417 -78 0
77 66 -418 78 0
77 66 418 -78 0
-78 -67 79 0
-78 67 -79 0
78 -67 -79 0
78 67 -79 0
-79 -68 -80 0
-79 68 -80 0
79 -68 80 0
79 68 80 0
-80 -69 -427 81 0
-80 -69 427 -81 0
-80 69 -428 81 0
-80 69 428 -81 0
80 -69 -429 81 0
80 -69 429 -81 0
80 69 -430 81 0
80 69 430 -81 0
-81 -70 82 0
-81 70 82 0
81 -70 -82 0
81 70 82 0
-82 -71 -435 83 0
-82 -71 435 -83 0
-82 71 -436 83 0
-82 71 436 -83 0
82 -71 -437 83 0
82 -71 437 -83 0
82 71 -438 83 0
82 71 438 -83 0
-83 -72 -439 84 0
-83 -72 439 -84 0
-83 72 -440 84 0
-83 72 440 -84 0
83 -72 -441 84 0
83 -72 441 -84 0
83 72 -442 84 0
83 72 442 -84 0
-73 -443 85 0
-73 443 -85 0
73 -444 85 0
73 444 -85 0
-85 -74 -86 0
-85 74 -86 0
85 -74 86 0
85 74 -86 0
-86 -75 -87 0
-86 75 -87 0
86 -75 87 0
86 75 87 0
-87 -76 -453 88 0
-87 -76 453 -88 0
-87 76 -454 88 0
-87 76 454 -88 0
87 -76 -455 88 0
87 -76 455 -88 0
87 76 -456 88 0
87 76 456 -88 0
-88 -77 -89 0
-88 77 89 0
88 -77 89 0
88 77 89 0
-89 -78 90 0
-89 78 -90 0
89 -78 -90 0
89 78 -90 0
-90 -79 91 0
-90 79 -91 0
90 -79 -91 0
90 79 91 0
-91 -80 -92 0
-91 80 92 0
91 -80 92 0
91 80 92 0
-92 -81 -473 93 0
-92 -81 473 -93 0
-92 81 -474 93 0
-92 81 474 -93 0
92 -81 -475 93 0
92 -81 475 -93 0
92 81 -476 93 0
92 81 476 -93 0
-93 -82 94 0
-93 82 94 0
93 -82 -94 0
93 82 94 0
-94 -83 -95 0
-94 83 -95 0
94 -83 -95 0
94 83 95 0
-95 -84 -96 0
-95 84 96 0
95 -84 -96 0
95 84 96 0
-85 -97 0
85 97 0
-97 -86 98 0
-97 86 98 0
97 -86 -98 0
97 86 98 0
-98 -87 -99 0
-98 87 -99 0
98 -87 -99 0
98 87 99 0
-99 -88 -499 100 0
-99 -88 499 -100 0
-99 88 -500 100 0
-99 88 500 -100 0
99 -88 -501 100 0
99 -88 501 -100 0
99 88 -502 100 0
99 88 502 -100 0
-100 -89 -101 0
-100 89 101 0
100 -89 -101 0
100 89 101 0
-101 -90 -102 0
-101 90 102 0
101 -90 102 0
101 90 102 0
-102 -91 -511 103 0
-102 -91 511 -103 0
-102 91 -512 103 0
-102 91 512 -103 0
102 -91 -513 103 0
102 -91 513 -103 0
102 91 -514 103 0
102 91 514 -103 0
-103 -92 104 0
-103 92 -104 0
103 -92 -104 0
103 92 -104 0
-104 -93 -105 0
-104 93 -105 0
104 -93 105 0
104 93 -105 0
-105 -94 106 0
-105 94 -106 0
105 -94 -106 0
105 94 106 0
-106 -95 107 0
-106 95 107 0
106 -95 -107 0
106 95 -107 0
-107 -96 108 0
-107 96 108 0
107 -96 -108 0
107 96 -108 0
-97 -535 109 0
-97 535 -109 0
97 -536 109 0
97 536 -109 0
-109 -98 -110 0
-109 98 110 0
109 -98 110 0
109 98 -110 0
-110 -99 111 0
-110 99 -111 0
110 -99 -111 0
110 99 -111 0
-111 -100 112 0
-111 100 -112 0
111 -100 112 0
111 100 112 0
-112 -101 113 0
-112 101 -113 0
112 -101 -113 0
112 101 -113 0
-113 -102 -553 114 0
-113 -102 553 -114 0
-113 102 -554 114 0
-113 102 554 -114 0
113 -102 -555 114 0
113 -102 555 -114 0
113 102 -556 114 0
113 102 556 -114 0
-114 -103 -557 115 0
-114 -103 557 -115 0
-114 103 -558 115 0
-114 103 558 -115 0
114 -103 -559 115 0
114 -103 559 -115 0
114 103 -560 115 0
114 103 560 -115 0
-115 -104 116 0
-115 104 116 0
115 -104 -116 0
115 104 -116 0
-116 -105 -565 117 0
-116 -105 565 -117 0
-116 105 -566 117 0
-116 105 566 -117 0
116 -105 -567 117 0
116 -105 567 -117 0
116 105 -568 117 0
116 105 568 -117 0
-117 -106 118 0
-117 106 -118 0
117 -106 118 0
117 106 -118 0
-118 -107 -119 0
-118 107 119 0
118 -107 119 0
118 107 -119 0
-119 -108 -577 120 0
-119 -108 577 -120 0
-119 108 -578 120 0
-119 108 578 -120 0
119 -108 -579 120 0
119 -108 579 -120 0
119 108 -580 120 0
119 108 580 -120 0
-109 -121 0
109 121 0
-121 -110 122 0
-121 110 -122 0
121 -110 122 0
121 110 122 0
-122 -111 -123 0
-122 111 123 0
122 -111 123 0
122 111 123 0
-123 -112 -591 124 0
-123 -112 591 -124 0
-123 112 -592 124 0
-123 112 592 -124 0
123 -112 -593 124 0
123 -112 593 -124 0
123 112 -594 124 0
123 112 594 -124 0
-124 -113 -125 0
-124 113 125 0
124 -113 -125 0
124 113 125 0
-125 -114 -599 126 0
-125 -114 599 -126 0
-125 114 -600 126 0
-125 114 600 -126 0
125 -114 -601 126 0
125 -114 601 -126 0
125 114 -602 126 0
125 114 602 -126 0
-126 -115 127 0
-126 115 -127 0
126 -115 127 0
126 115 127 0
-127 -116 -607 128 0
-127 -116 607 -128 0
-127 116 -608 128 0
-127 116 608 -128 0
127 -116 -609 128 0
127 -116 609 -128 0
127 116 -610 128 0
127 116 610 -128 0
-128 -117 129 0
-128 117 -129 0
128 -117 129 0
128 117 -129 0
-129 -118 -130 0
-129 118 130 0
129 -118 130 0
129 118 -130 0
-130 -119 131 0
-130 119 -131 0
130 -119 -131 0
130 119 -131 0
-131 -120 -132 0
-131 120 -132 0
131 -120 132 0
131 120 -132 0
-121 133 0
121 -133 0
-133 -122 -629 134 0
-133 -122 629 -134 0
-133 122 -630 134 0
-133 122 630 -134 0
133 -122 -631 134 0
133 -122 631 -134 0
133 122 -632 134 0
133 122 632 -134 0
-134 -123 -633 135 0
-134 -123 633 -135 0
-134 123 -634 135 0
-134 123 634 -135 0
134 -123 -635 135 0
134 -123 635 -135 0
134 123 -636 135 0
134 123 636 -135 0
-135 -124 136 0
-135 124 136 0
135 -124 136 0
135 124 -136 0
-136 -125 -137 0
-136 125 -137 0
136 -125 137 0
136 125 137 0
-137 -126 -138 0
-137 126 138 0
137 -126 -138 0
137 126 -138 0
-138 -127 -649 139 0
-138 -127 649 -139 0
-138 127 -650 139 0
-138 127 650 -139 0
138 -127 -651 139 0
138 -127 651 -139 0
138 127 -652 139 0
138 127 652 -139 0
-139 -128 -653 140 0
-139 -128 653 -140 0
-139 128 -654 140 0
-139 128 654 -140 0
139 -128 -655 140 0
139 -128 655 -140 0
139 128 -656 140 0
139 128 656 -140 0
-140 -129 141 0
-140 129 -141 0
140 -129 141 0
140 129 141 0
-141 -130 142 0
-141 130 142 0
141 -130 142 0
141 130 -142 0
-142 -131 143 0
-142 131 -143 0
142 -131 143 0
142 131 143 0
-143 -132 -144 0
-143 132 144 0
143 -132 144 0
143 132 144 0
144 0
