data/benchmarks/bayes/75-12-5-q.gr
p tw 672 853
55 66
67 68
122 632
99 100
88 100
127 607
116 607
100 501
70 82
8 9
120 577
40 41
29 41
3 150
100 101
65 372
11 23
121 133
113 556
41 42
40 315
73 74
62 74
103 511
133 134
44 56
7 156
102 555
16 223
14 15
3 15
52 316
74 75
106 107
95 107
62 357
116 566
105 566
122 133
28 224
15 16
109 536
47 48
36 48
54 371
108 580
38 265
92 474
107 108
96 108
18 30
117 567
128 140
2 171
21 32
80 81
69 81
81 473
140 141
113 124
102 514
85 443
91 514
129 141
10 22
14 172
41 275
81 82
54 65
13 213
102 114
140 653
22 23
123 591
43 55
112 591
37 259
114 115
87 98
51 315
103 115
133 632
99 499
88 499
82 437
55 56
28 39
71 437
27 223
76 88
122 631
88 99
47 299
126 601
29 40
77 89
3 149
65 371
119 580
139 656
128 656
2 13
62 73
78 417
110 122
3 14
51 63
35 46
95 106
116 565
105 565
109 535
36 47
108 579
92 473
128 139
21 22
2 170
40 273
29 273
69 80
113 114
102 513
91 513
139 651
10 21
54 55
41 274
102 113
115 559
9 160
88 453
71 391
43 54
6 154
26 221
15 221
87 88
133 631
35 297
114 599
28 29
17 29
27 222
76 87
88 89
109 121
122 630
47 298
74 401
126 600
29 30
61 62
50 62
66 415
13 171
50 309
121 122
119 579
2 3
139 655
128 655
62 63
94 95
83 95
78 416
110 121
76 455
3 4
35 36
24 36
95 96
84 96
127 128
52 363
116 128
51 318
19 195
8 195
9 20
68 69
57 69
27 226
64 364
128 129
117 129
127 649
20 196
69 70
42 53
58 70
101 102
90 102
10 11
139 650
31 43
70 389
59 389
102 103
75 86
63 359
91 103
123 135
115 558
9 159
32 44
43 44
16 27
43 282
71 390
64 76
6 153
125 599
26 220
15 220
80 429
69 429
108 119
135 136
124 136
5 17
17 28
76 77
65 77
97 109
97 536
81 430
47 297
6 18
74 400
128 609
73 444
50 61
84 441
98 110
82 93
40 276
29 276
13 170
50 308
87 455
39 51
23 34
139 654
83 94
25 260
115 126
63 363
131 143
76 454
88 456
24 35
72 84
56 67
116 127
52 362
9 10
35 300
19 194
8 194
46 297
114 602
57 68
135 634
89 100
30 41
42 43
90 101
134 135
66 418
31 42
75 76
63 358
123 134
16 17
43 281
64 75
26 219
80 428
53 322
69 428
5 16
49 50
38 50
29 230
83 439
109 110
130 142
74 399
128 608
50 51
127 652
82 83
71 83
84 440
25 214
138 649
142 143
50 307
23 24
12 24
87 454
70 392
83 84
31 284
115 116
104 116
134 633
63 362
76 453
77 418
56 57
45 57
114 556
116 117
105 117
52 361
57 58
46 58
73 402
62 402
89 90
78 90
4 150
135 633
66 372
49 310
38 310
30 31
19 31
90 91
63 74
79 91
111 123
72 442
39 265
93 474
31 32
4 15
20 32
52 64
141 142
123 124
112 124
63 357
52 320
41 320
64 65
53 65
85 97
114 560
103 560
28 228
17 228
124 592
80 427
123 636
11 166
53 321
5 6
26 38
51 360
100 500
38 49
97 98
70 81
46 300
29 229
83 438
86 98
118 130
130 141
27 268
27 39
11 22
128 607
113 555
71 82
42 284
25 213
84 439
119 131
12 23
60 72
44 55
7 155
102 554
31 283
104 115
134 632
52 315
1 13
122 123
45 56
114 555
93 105
28 223
54 370
96 107
18 29
117 566
127 610
116 610
78 89
126 138
4 149
83 442
66 371
120 580
19 30
129 140
63 64
14 171
111 122
72 441
138 652
40 318
93 473
4 5
25 37
103 514
52 63
16 226
134 636
52 319
41 319
103 114
37 38
62 360
28 227
17 227
82 436
71 436
124 591
11 165
38 268
26 37
51 359
70 71
59 71
100 499
83 437
118 129
130 131
77 88
11 12
27 267
81 476
65 370
113 554
92 104
44 45
33 45
102 553
140 656
125 137
51 62
134 631
123 594
112 594
66 78
99 502
88 502
137 138
54 369
108 578
18 19
7 19
117 565
99 111
82 438
2 169
120 579
129 130
40 52
102 512
91 512
111 112
100 112
132 144
14 170
41 273
40 317
73 85
103 513
16 225
103 104
14 26
133 630
85 86
62 359
116 568
105 568
106 118
82 435
71 435
27 221
136 137
38 267
47 59
92 476
122 629
59 70
118 119
107 119
126 599
77 78
81 475
65 369
119 578
80 92
113 553
92 103
128 654
110 111
78 415
33 44
81 93
51 52
140 655
125 136
123 593
84 95
112 593
143 144
51 317
66 77
114 126
99 501
88 501
108 577
27 225
64 363
55 67
117 128
20 195
99 110
58 69
40 51
102 511
91 511
139 649
132 143
91 102
124 593
25 26
115 557
103 512
32 43
71 389
15 219
14 25
124 135
133 629
17 18
116 567
105 567
106 117
65 76
97 535
27 220
81 429
92 475
47 58
6 17
73 443
2 172
98 109
40 275
21 33
13 169
29 275
119 577
80 91
113 125
39 50
85 444
139 653
59 392
128 653
41 276
25 259
131 142
54 66
13 25
88 455
140 654
72 83
125 602
6 156
37 260
87 99
51 316
35 299
19 193
8 193
114 601
117 118
28 40
27 224
64 362
47 300
120 132
20 194
58 59
126 602
61 73
66 417
91 92
2 14
78 418
94 106
32 33
124 125
35 47
69 427
127 139
65 66
27 219
81 428
68 80
6 7
139 140
127 651
98 99
40 274
29 274
101 113
39 40
87 453
139 652
70 391
59 391
131 132
5 154
63 361
71 438
115 560
88 454
77 417
71 392
125 601
43 284
105 116
6 155
26 222
15 222
35 298
46 57
73 401
62 401
114 600
64 361
49 309
38 309
120 131
20 193
74 402
79 90
66 416
13 172
50 310
20 31
112 123
94 105
53 64
76 456
114 559
8 160
103 559
123 635
53 320
52 364
38 39
127 138
19 196
8 196
46 299
9 21
29 228
86 97
81 427
135 636
12 166
68 79
27 38
71 72
127 650
42 283
119 130
42 54
39 268
101 112
60 71
104 105
70 390
59 390
31 282
5 153
75 87
13 14
63 360
45 46
34 46
77 416
114 554
93 104
105 106
125 600
16 28
43 283
80 430
69 430
108 120
46 47
78 79
67 79
73 400
62 400
127 609
116 609
126 137
138 139
49 61
66 370
83 441
19 20
8 20
49 308
38 308
79 80
128 610
72 440
84 442
138 651
82 94
20 21
52 53
41 53
87 456
112 113
23 35
134 635
52 318
115 127
53 54
63 364
74 86
114 558
8 159
103 558
28 226
56 68
123 634
26 27
15 27
53 319
86 87
51 358
46 298
29 227
83 436
135 635
89 101
12 165
27 28
27 266
48 60
119 120
30 42
42 282
39 267
93 476
31 281
134 630
1 2
22 34
52 322
41 322
34 45
93 94
77 415
114 553
28 230
17 230
124 594
7 18
67 78
73 399
62 399
100 502
126 127
127 608
116 608
83 440
66 369
120 578
8 19
49 307
38 307
28 229
100 111
14 169
72 439
138 650
40 316
41 52
102 556
16 224
134 634
52 317
88 500
74 85
62 358
122 134
114 557
103 557
28 225
123 633
15 26
54 372
38 266
59 60
51 357
117 568
107 118
83 435
27 265
48 59
81 474
92 93
42 281
63 75
33 34
39 266
93 475
13 214
81 92
4 16
125 126
134 629
123 592
112 592
22 33
34 35
52 321
41 321
66 67
114 125
99 500
37 49
7 8
17 229
